Problem:    
Rows:       260
Columns:    89 (72 integer, 72 binary)
Non-zeros:  974
Status:     INTEGER OPTIMAL
Objective:  value = 33.579235 (MINimum)

   No.   Row name        Activity     Lower bound   Upper bound
------ ------------    ------------- ------------- -------------
     1 r.5                   33.5792             0               
     2 r.6                    20.084      -990.532               
     3 r.7                   1033.58             0               
     4 r.8                  -979.916      -991.352               
     5 r.9                   1033.58             0               
     6 r.10                 -983.423      -990.627               
     7 r.11                  33.5792             0               
     8 r.12                  22.9284      -991.402               
     9 r.13                  33.5792             0               
    10 r.14                   20.084      -999.336               
    11 r.15                  1033.58             0               
    12 r.16                 -988.564      -998.362               
    13 r.17                  33.5792             0               
    14 r.18                   20.084      -998.849               
    15 r.19                  1033.58             0               
    16 r.20                 -990.202      -997.501               
    17 r.21                  1033.58             0               
    18 r.22                 -975.919      -995.436               
    19 r.23                  33.5792             0               
    20 r.24                 -988.462      -995.666               
    21 r.25                  33.5792             0               
    22 r.26                   13.084      -999.397               
    23 r.27                  1033.58             0               
    24 r.28                 -998.485      -998.485               
    25 r.29                  33.5792             0               
    26 r.30                  33.5792      -984.875               
    27 r.31                  1033.58             0               
    28 r.32                 -972.979      -993.063               
    29 r.33                  33.5792             0               
    30 r.34                  33.5792      -985.015               
    31 r.35                  1033.58             0               
    32 r.36                 -966.421      -993.442               
    33 r.37                        1             1             = 
    34 r.38                        1             1             = 
    35 r.39                        1             1             = 
    36 r.40                        1             1             = 
    37 r.41                        1             1             = 
    38 r.42                        1             1             = 
    39 r.43                        1             1             = 
    40 r.44                        1             1             = 
    41 r.45                     1001             2               
    42 r.46                    -1001         -1001               
    43 r.47                  1996.49      -990.627               
    44 r.48                     1001             2               
    45 r.49                    -1001         -1001               
    46 r.50                  2002.84      -991.402               
    47 r.51                     1000             2               
    48 r.52                    -1000         -1001               
    49 r.53                     2000      -999.336               
    50 r.54                        2             2               
    51 r.55                       -2         -1001               
    52 r.56                 -8.64822      -998.362               
    53 r.57                     1000             2               
    54 r.58                    -1000         -1001               
    55 r.59                     2000      -998.849               
    56 r.60                        2             2               
    57 r.61                       -2         -1001               
    58 r.62                 -10.2858      -997.501               
    59 r.63                     1001             2               
    60 r.64                    -1001         -1001               
    61 r.65                     2004      -995.436               
    62 r.66                     1001             2               
    63 r.67                    -1001         -1001               
    64 r.68                  991.454      -995.666               
    65 r.69                  12.8806      -990.532               
    66 r.70                 -987.119      -991.352               
    67 r.71                  12.8806      -990.532               
    68 r.72                 -987.119      -991.352               
    69 r.73                  13.4952      -984.875               
    70 r.74                 -993.063      -993.063               
    71 r.75                  13.4952      -984.875               
    72 r.76                 -993.063      -993.063               
    73 r.77                  13.4952      -985.015               
    74 r.78                 -986.505      -993.442               
    75 r.79                  13.4952      -985.015               
    76 r.80                 -986.505      -993.442               
    77 r.81                     1001             2               
    78 r.82                    -1001         -1001               
    79 r.83                  2000.57        9.4678               
    80 r.84                     1001             2               
    81 r.85                    -1001         -1001               
    82 r.86                     2000       8.64822               
    83 r.87                     1001             2               
    84 r.88                    -1001         -1001               
    85 r.89                  2000.57      -999.336               
    86 r.90                     1001             2               
    87 r.91                    -1001         -1001               
    88 r.92                  1991.35      -998.362               
    89 r.93                     1001             2               
    90 r.94                    -1001         -1001               
    91 r.95                  2000.57      -998.849               
    92 r.96                     1001             2               
    93 r.97                    -1001         -1001               
    94 r.98                  1989.71      -997.501               
    95 r.99                        2             2               
    96 r.100                      -2         -1001               
    97 r.101                -995.436      -995.436               
    98 r.102                    1000             2               
    99 r.103                   -1000         -1001               
   100 r.104                 991.454      -995.666               
   101 r.105                -990.627      -990.627               
   102 r.106                  15.725      -991.402               
   103 r.107                -990.627      -990.627               
   104 r.108                  15.725      -991.402               
   105 r.109                 14.0624      -984.875               
   106 r.110                -992.496      -993.063               
   107 r.111                 13.4952      -984.875               
   108 r.112                -993.063      -993.063               
   109 r.113                    1001             2               
   110 r.114                   -1001         -1001               
   111 r.115                 2014.06      -985.015               
   112 r.116                    1001             2               
   113 r.117                   -1001         -1001               
   114 r.118                  2013.5      -993.442               
   115 r.119                    1000             2               
   116 r.120                   -1000         -1001               
   117 r.121                    2000        9.4678               
   118 r.122                       2             2               
   119 r.123                      -2         -1001               
   120 r.124                 8.64822       8.64822               
   121 r.125                    1001             2               
   122 r.126                   -1001         -1001               
   123 r.127                 1996.49        9.3731               
   124 r.128                    1001             2               
   125 r.129                   -1001         -1001               
   126 r.130                 2011.49       8.59772               
   127 r.131                    1000             2               
   128 r.132                   -1000         -1001               
   129 r.133                    2000      -998.849               
   130 r.134                       2             2               
   131 r.135                      -2         -1001               
   132 r.136                -1.63758      -997.501               
   133 r.137                    1001             2               
   134 r.138                   -1001         -1001               
   135 r.139                    2004      -995.436               
   136 r.140                    1001             2               
   137 r.141                   -1001         -1001               
   138 r.142                  1000.1      -995.666               
   139 r.143                 12.8806      -999.336               
   140 r.144                -995.768      -998.362               
   141 r.145                 12.8806      -999.336               
   142 r.146                -995.768      -998.362               
   143 r.147                 13.4952      -984.875               
   144 r.148                -993.063      -993.063               
   145 r.149                 22.1434      -984.875               
   146 r.150                -984.415      -993.063               
   147 r.151                 13.4952      -985.015               
   148 r.152                -986.505      -993.442               
   149 r.153                 22.1434      -985.015               
   150 r.154                -977.857      -993.442               
   151 r.155                    1000             2               
   152 r.156                   -1000         -1001               
   153 r.157                    2000        9.4678               
   154 r.158                       2             2               
   155 r.159                      -2         -1001               
   156 r.160                 10.2858       8.64822               
   157 r.161                    1001             2               
   158 r.162                   -1001         -1001               
   159 r.163                 1996.49        9.3731               
   160 r.164                    1001             2               
   161 r.165                   -1001         -1001               
   162 r.166                 2013.13       8.59772               
   163 r.167                    1000             2               
   164 r.168                   -1000         -1001               
   165 r.169                    2000      0.664444               
   166 r.170                       2             2               
   167 r.171                      -2         -1001               
   168 r.172                 1.63758       1.63758               
   169 r.173                    1001             2               
   170 r.174                   -1001         -1001               
   171 r.175                    2004      -995.436               
   172 r.176                    1001             2               
   173 r.177                   -1001         -1001               
   174 r.178                 1001.74      -995.666               
   175 r.179                 12.8806      -998.849               
   176 r.180                -997.405      -997.501               
   177 r.181                 12.8806      -998.849               
   178 r.182                -997.405      -997.501               
   179 r.183                 13.4952      -984.875               
   180 r.184                -993.063      -993.063               
   181 r.185                  23.781      -984.875               
   182 r.186                -982.777      -993.063               
   183 r.187                    1000             2               
   184 r.188                   -1000         -1001               
   185 r.189                  2013.5      -985.015               
   186 r.190                       2             2               
   187 r.191                      -2         -1001               
   188 r.192                -976.219      -993.442               
   189 r.193                    1001             2               
   190 r.194                   -1001         -1001               
   191 r.195                 1993.06        9.4678               
   192 r.196                    1001             2               
   193 r.197                   -1001         -1001               
   194 r.198                 3011.39       8.64822               
   195 r.199                       2             2               
   196 r.200                      -2         -1001               
   197 r.201                 989.555        9.3731               
   198 r.202                    1000             2               
   199 r.203                   -1000         -1001               
   200 r.204                 3014.24       8.59772               
   201 r.205                    1001             2               
   202 r.206                   -1001         -1001               
   203 r.207                 1993.06      0.664444               
   204 r.208                    1001             2               
   205 r.209                   -1001         -1001               
   206 r.210                 3002.74       1.63758               
   207 r.211                    1001             2               
   208 r.212                   -1001         -1001               
   209 r.213                 1993.06       1.15124               
   210 r.214                    1001             2               
   211 r.215                   -1001         -1001               
   212 r.216                 3001.11       2.49851               
   213 r.217                -983.122      -995.436               
   214 r.218                -995.666      -995.666               
   215 r.219                -983.122      -995.436               
   216 r.220                -995.666      -995.666               
   217 r.221                    1001             2               
   218 r.222                   -1001         -1001               
   219 r.223                 2006.56      -984.875               
   220 r.224                    1001             2               
   221 r.225                   -1001         -1001               
   222 r.226                 3018.33      -993.063               
   223 r.227                   6.558      -985.015               
   224 r.228                -993.442      -993.442               
   225 r.229                 1024.89      -985.015               
   226 r.230                  24.886      -993.442               
   227 r.231                 26.3758      -984.875               
   228 r.232                -980.182      -993.063               
   229 r.233                 26.3758      -984.875               
   230 r.234                -980.182      -993.063               
   231 r.235                    1001             2               
   232 r.236                   -1001         -1001               
   233 r.237                  1990.5       4.56413               
   234 r.238                    1001             2               
   235 r.239                   -1001         -1001               
   236 r.240                 984.516       4.33416               
   237 r.241                    1000             2               
   238 r.242                   -1000         -1001               
   239 r.243                    2000      -985.015               
   240 r.244                       2             2               
   241 r.245                      -2         -1001               
   242 r.246                -993.442      -993.442               
   243 r.247                    1001             2               
   244 r.248                   -1001         -1001               
   245 r.249                    1983        9.3731               
   246 r.250                    1001             2               
   247 r.251                   -1001         -1001               
   248 r.252                 1989.35       8.59772               
   249 r.253                    1000             2               
   250 r.254                   -1000         -1001               
   251 r.255                  1986.5       1.15124               
   252 r.256                       2             2               
   253 r.257                      -2         -1001               
   254 r.258                 976.219       2.49851               
   255 r.259                    1000             2               
   256 r.260                   -1000         -1001               
   257 r.261                    2000       15.1251               
   258 r.262                       2             2               
   259 r.263                      -2         -1001               
   260 r.264                 993.442        6.9372               

   No. Column name       Activity     Lower bound   Upper bound
------ ------------    ------------- ------------- -------------
     1 tt                    33.5792             0               
     2 s_1_1        *              0             0             1 
     3 t_1_1                 13.4952             0               
     4 s_1_8        *              0             0             1 
     5 s_1_7        *              0             0             1 
     6 s_2_1        *              1             0             1 
     7 t_2_1                 13.4952             0               
     8 s_2_8        *              1             0             1 
     9 s_2_7        *              1             0             1 
    10 s_1_2        *              1             0             1 
    11 t_1_2                 14.0624             0               
    12 s_2_2        *              0             0             1 
    13 t_2_2                 13.4952             0               
    14 s_1_3        *              0             0             1 
    15 t_1_3                 13.4952             0               
    16 s_2_3        *              1             0             1 
    17 t_2_3                 22.1434             0               
    18 s_1_4        *              0             0             1 
    19 t_1_4                 13.4952             0               
    20 s_2_4        *              1             0             1 
    21 t_2_4                  23.781             0               
    22 s_1_5        *              1             0             1 
    23 t_1_5                   6.558             0               
    24 s_2_5        *              0             0             1 
    25 t_2_5                 1024.89             0               
    26 s_1_6        *              0             0             1 
    27 t_1_6                 26.3758             0               
    28 s_2_6        *              1             0             1 
    29 t_2_6                 26.3758             0               
    30 t_1_7                       0             0               
    31 t_2_7                   6.558             0               
    32 t_1_8                       0             0               
    33 t_2_8                       0             0               
    34 r_1_1_2      *              1             0             1 
    35 u_1_1_2      *              0             0             1 
    36 r_2_1_2      *              1             0             1 
    37 u_2_1_2      *              0             0             1 
    38 r_1_1_3      *              1             0             1 
    39 u_1_1_3      *              0             0             1 
    40 r_2_1_3      *              0             0             1 
    41 u_2_1_3      *              0             0             1 
    42 r_1_1_4      *              1             0             1 
    43 u_1_1_4      *              0             0             1 
    44 r_2_1_4      *              0             0             1 
    45 u_2_1_4      *              0             0             1 
    46 r_1_1_5      *              1             0             1 
    47 u_1_1_5      *              0             0             1 
    48 r_2_1_5      *              1             0             1 
    49 u_2_1_5      *              0             0             1 
    50 r_1_2_3      *              1             0             1 
    51 u_1_2_3      *              0             0             1 
    52 r_2_2_3      *              1             0             1 
    53 u_2_2_3      *              0             0             1 
    54 r_1_2_4      *              1             0             1 
    55 u_1_2_4      *              0             0             1 
    56 r_2_2_4      *              1             0             1 
    57 u_2_2_4      *              0             0             1 
    58 r_1_2_5      *              0             0             1 
    59 u_1_2_5      *              1             0             1 
    60 r_2_2_5      *              1             0             1 
    61 u_2_2_5      *              0             0             1 
    62 r_1_2_8      *              1             0             1 
    63 u_1_2_8      *              0             0             1 
    64 r_2_2_8      *              1             0             1 
    65 u_2_2_8      *              0             0             1 
    66 r_1_3_4      *              1             0             1 
    67 u_1_3_4      *              0             0             1 
    68 r_2_3_4      *              0             0             1 
    69 u_2_3_4      *              0             0             1 
    70 r_1_3_5      *              1             0             1 
    71 u_1_3_5      *              0             0             1 
    72 r_2_3_5      *              1             0             1 
    73 u_2_3_5      *              0             0             1 
    74 r_1_4_5      *              1             0             1 
    75 u_1_4_5      *              0             0             1 
    76 r_2_4_5      *              1             0             1 
    77 u_2_4_5      *              0             0             1 
    78 r_1_4_8      *              1             0             1 
    79 u_1_4_8      *              0             0             1 
    80 r_2_4_8      *              0             0             1 
    81 u_2_4_8      *              1             0             1 
    82 r_1_5_7      *              1             0             1 
    83 u_1_5_7      *              0             0             1 
    84 r_2_5_7      *              1             0             1 
    85 u_2_5_7      *              0             0             1 
    86 r_1_7_8      *              1             0             1 
    87 u_1_7_8      *              0             0             1 
    88 r_2_7_8      *              0             0             1 
    89 u_2_7_8      *              1             0             1 

Integer feasibility conditions:

KKT.PE: max.abs.err = 2.27e-13 on row 24
        max.rel.err = 1.09e-16 on row 24
        High quality

KKT.PB: max.abs.err = 0.00e+00 on row 0
        max.rel.err = 0.00e+00 on row 0
        High quality

End of output
